id: 316
name: jendrec1
group: meszaros/misc
method: 2

Gurobi 7.0.2 (linux64, Matlab) logging started Mon Mar 26 10:09:56 2018


Gurobi 7.0.2 (linux64) logging started Mon Mar 26 10:09:56 2018

Optimize a model with 2109 rows, 4228 columns and 89608 nonzeros
Coefficient statistics:
  Matrix range     [2e-04, 1e+02]
  Objective range  [6e-05, 4e+02]
  Bounds range     [0e+00, 0e+00]
  RHS range        [4e-01, 5e+02]
Presolve removed 0 rows and 693 columns
Presolve time: 0.04s
Presolved: 2109 rows, 3535 columns, 88915 nonzeros

Ordering time: 0.00s

Barrier statistics:
 Dense cols : 58
 AA' NZ     : 8.268e+04
 Factor NZ  : 1.272e+05 (roughly 3 MBytes of memory)
 Factor Ops : 7.582e+06 (less than 1 second per iteration)
 Threads    : 4

                  Objective                Residual
Iter       Primal          Dual         Primal    Dual     Compl     Time
   0   4.68289121e+06  6.36590199e+03  7.35e+03 7.62e+02  3.26e+05     0s
   1   4.13618804e+06 -8.74067539e+04  7.23e+03 4.58e+03  3.18e+05     0s
   2   4.37334141e+06 -3.41652265e+05  7.02e+03 9.15e+03  3.09e+05     0s
   3   4.57313542e+06 -6.88275674e+05  6.98e+03 2.05e+04  3.08e+05     0s
   4   5.14935519e+06  5.94251620e+05  6.95e+03 2.38e+04  3.07e+05     0s
   5   4.65888399e+06  1.50693330e+05  6.67e+03 1.80e+04  2.98e+05     0s
   6   4.73674323e+06 -7.64091075e+05  6.64e+03 2.21e+04  2.95e+05     0s
   7   5.15598960e+06 -8.16431146e+05  6.55e+03 2.15e+04  2.93e+05     0s
   8   2.28598096e+06 -3.08654278e+05  1.11e+03 4.16e+03  6.60e+04     0s
   9   2.35663567e+06 -3.16264120e+05  1.11e+03 4.28e+03  6.59e+04     0s
  10   2.48504989e+06 -2.73787536e+05  1.10e+03 4.39e+03  6.58e+04     0s
  11   2.35661317e+06 -6.91708100e+05  1.08e+03 7.77e+03  6.52e+04     0s
  12   2.25705407e+06 -1.72719511e+06  1.07e+03 3.87e+04  6.19e+04     0s
  13   2.25755290e+06 -2.05265097e+06  1.01e+03 4.89e+04  5.37e+04     0s
  14   2.24474918e+06 -2.52496647e+06  1.01e+03 6.45e+04  5.31e+04     0s
  15   2.25230726e+06 -2.51339929e+06  1.00e+03 6.43e+04  5.29e+04     0s
  16   2.20191101e+06 -2.46158551e+06  1.00e+03 6.29e+04  5.28e+04     0s
  17   2.29616923e+06 -6.96451423e+05  7.78e+02 1.09e+04  3.98e+04     0s
  18   2.46364476e+06 -5.24188032e+05  6.79e+02 5.81e+03  3.65e+04     0s
  19   2.54849350e+06  3.42764675e+05  6.44e+02 3.34e+04  2.82e+04     0s
  20   2.00994803e+06 -1.35147600e+04  2.65e+02 6.38e+03  5.94e+03     0s
  21   2.00930711e+06 -1.02825417e+05  2.62e+02 5.18e+03  4.84e+03     0s
  22   2.12286719e+06 -6.27237649e+04  2.19e+02 4.51e+03  4.22e+03     0s
  23   2.12052994e+06 -1.01152867e+05  1.99e+02 4.11e+03  3.78e+03     0s
  24   2.12375007e+06 -7.99932910e+05  1.99e+02 2.53e+04  3.76e+03     0s
  25   1.95562889e+06 -9.59267658e+05  1.97e+02 3.02e+04  3.68e+03     0s
  26   1.89295643e+06 -8.57842849e+05  1.74e+02 2.70e+04  3.09e+03     0s
  27   1.88745034e+06 -8.35103041e+05  1.70e+02 2.62e+04  3.00e+03     0s
  28   1.89554356e+06 -8.29957910e+05  1.69e+02 2.60e+04  2.98e+03     0s
  29   1.89460491e+06 -8.25256240e+05  1.69e+02 2.59e+04  2.97e+03     0s
  30   1.90770201e+06 -8.09099541e+05  1.64e+02 2.54e+04  2.82e+03     0s
  31   1.82032857e+06 -7.51466875e+05  1.47e+02 2.36e+04  2.61e+03     0s
  32   1.76399533e+06 -5.91517740e+05  1.35e+02 1.84e+04  2.10e+03     0s
  33   1.36430214e+06 -3.13575384e+05  5.79e+01 1.12e+04  1.24e+03     0s
  34   1.37034615e+06 -2.94449303e+05  5.75e+01 1.07e+04  1.23e+03     0s
  35   1.25549423e+06 -1.96228012e+05  4.46e+01 6.89e+03  8.31e+02     0s
  36   1.24652022e+06 -2.67049186e+05  4.40e+01 9.20e+03  7.50e+02     0s
  37   1.25189486e+06 -2.19747823e+05  4.22e+01 7.01e+03  6.38e+02     0s
  38   1.35144855e+06 -2.18595216e+05  3.95e+01 6.94e+03  6.23e+02     0s
  39   1.34629719e+06 -2.13816046e+05  3.89e+01 6.96e+03  6.07e+02     0s
  40   1.36432273e+06 -2.15785092e+05  3.79e+01 6.99e+03  5.94e+02     0s
  41   1.48143121e+06 -1.94636102e+05  3.17e+01 6.30e+03  5.80e+02     0s
  42   1.45071178e+06 -1.88892687e+05  2.96e+01 6.10e+03  5.55e+02     0s
  43   1.45187994e+06 -1.82103484e+05  2.92e+01 5.90e+03  5.43e+02     0s
  44   1.29361223e+06 -1.55612285e+05  2.67e+01 4.84e+03  4.85e+02     0s
  45   1.06286445e+06 -1.46713759e+05  1.20e+01 4.49e+03  2.66e+02     0s
  46   9.98411764e+05 -1.12687501e+05  9.96e+00 3.46e+03  2.11e+02     0s
  47   1.03958741e+06 -1.10159328e+05  9.20e+00 3.41e+03  2.06e+02     0s
  48   7.81356323e+05 -1.06220441e+05  6.56e+00 3.25e+03  1.66e+02     0s
  49   8.22736392e+05 -1.01678017e+05  6.21e+00 3.04e+03  1.60e+02     0s
  50   6.61163278e+05 -8.52767428e+04  3.18e+00 2.53e+03  1.11e+02     0s
  51   6.90552793e+05 -4.77965017e+04  2.79e+00 1.44e+03  8.74e+01     0s
  52   6.80267305e+05 -4.98394827e+04  2.72e+00 1.32e+03  8.51e+01     0s
  53   5.29665973e+05 -4.87145323e+04  2.60e+00 1.26e+03  8.29e+01     0s
  54   7.02698121e+05 -4.39666423e+04  2.20e+00 1.17e+03  9.88e+01     0s
  55   7.22811905e+05 -3.69231554e+04  1.94e+00 9.46e+02  9.18e+01     0s
  56   7.83738748e+05 -2.60709319e+04  1.64e+00 5.41e+02  7.22e+01     0s
  57   8.64882123e+05 -3.53789144e+04  1.62e+00 8.71e+02  7.22e+01     0s
  58   8.69567171e+05 -3.81732723e+04  1.60e+00 8.17e+02  6.99e+01     0s
  59   7.41472506e+05 -4.37665116e+04  1.51e+00 9.92e+02  6.32e+01     0s
  60   7.29880655e+05 -5.96741077e+04  1.44e+00 1.61e+03  6.00e+01     0s
  61   7.08455115e+05 -5.88098280e+04  1.43e+00 1.59e+03  5.95e+01     0s
  62   2.27000735e+05 -4.76983850e+04  1.19e+00 1.31e+03  4.13e+01     0s
  63   2.19112114e+05 -4.72422969e+04  1.11e+00 1.28e+03  3.78e+01     0s
  64   2.20340030e+05 -3.77035360e+04  1.10e+00 9.60e+02  3.70e+01     1s
  65   2.18816175e+05 -5.64827694e+04  1.03e+00 1.08e+03  3.45e+01     1s
  66   2.21671394e+05 -5.72591029e+04  1.03e+00 9.93e+02  3.41e+01     1s
  67   2.22764342e+05 -4.67156543e+04  1.02e+00 7.02e+02  3.35e+01     1s
  68   2.21461125e+05 -4.36629256e+04  9.85e-01 6.58e+02  3.19e+01     1s
  69   2.06951769e+05 -4.22087742e+04  9.31e-01 6.36e+02  3.03e+01     1s
  70   2.02641538e+05 -4.13203805e+04  8.83e-01 6.46e+02  2.90e+01     1s
  71   1.95709297e+05 -4.11834628e+04  8.64e-01 6.20e+02  2.83e+01     1s
  72   1.57021197e+05 -6.23939513e+04  6.35e-01 8.52e+02  2.22e+01     1s
  73   1.42981540e+05 -4.37583312e+04  4.57e-01 6.33e+02  1.55e+01     1s
  74   1.44222211e+05 -3.90778377e+04  4.39e-01 5.17e+02  1.50e+01     1s
  75   1.57600541e+05 -3.66000618e+04  4.31e-01 5.02e+02  1.63e+01     1s
  76   1.53976731e+05 -2.94450207e+04  4.07e-01 3.29e+02  1.51e+01     1s
  77   1.48843135e+05 -2.92756911e+04  3.97e-01 3.18e+02  1.47e+01     1s
  78   1.52921329e+05 -3.18846058e+04  3.89e-01 3.69e+02  1.41e+01     1s
  79   1.49917886e+05 -3.24297083e+04  3.85e-01 3.79e+02  1.42e+01     1s
  80   1.49337986e+05 -6.74819895e+04  3.85e-01 1.44e+03  1.46e+01     1s
  81   1.63921400e+05 -5.37084947e+04  3.67e-01 1.03e+03  1.37e+01     1s
  82   1.64583505e+05 -4.62254692e+04  3.67e-01 1.03e+03  1.36e+01     1s
  83   1.59864179e+05 -4.55480449e+04  3.46e-01 1.01e+03  1.30e+01     1s
  84   1.62517452e+05 -3.74517884e+04  3.39e-01 8.00e+02  1.19e+01     1s
  85   1.51594026e+05 -3.56492062e+04  3.30e-01 7.54e+02  1.17e+01     1s
  86   1.50086277e+05 -3.45697465e+04  3.29e-01 7.51e+02  1.17e+01     1s
  87   1.50652720e+05 -2.73532602e+04  3.12e-01 5.46e+02  1.13e+01     1s
  88   1.50311790e+05 -2.71012232e+04  3.06e-01 5.32e+02  1.10e+01     1s
  89   1.48824128e+05 -2.56009115e+04  3.00e-01 5.03e+02  1.08e+01     1s
  90   1.49753954e+05 -2.93640807e+04  2.99e-01 5.84e+02  1.11e+01     1s
  91   1.51016988e+05 -3.20536546e+04  2.97e-01 6.42e+02  1.09e+01     1s
  92   1.38913688e+05 -3.04674381e+04  2.93e-01 6.14e+02  1.13e+01     1s
  93   1.39343545e+05 -3.52973668e+04  2.93e-01 6.97e+02  1.13e+01     1s
  94   1.37766075e+05 -4.05307476e+04  2.74e-01 8.41e+02  1.06e+01     1s
  95   1.33877613e+05 -4.11975949e+04  2.67e-01 8.26e+02  1.03e+01     1s
  96   1.34103405e+05 -4.22474778e+04  2.66e-01 8.56e+02  1.02e+01     1s
  97   1.34089727e+05 -1.06360960e+09  2.66e-01 6.55e+07  1.02e+01     1s

Barrier performed 97 iterations in 0.75 seconds
Numerical trouble encountered

Model may be infeasible or unbounded.  Consider using the
homogeneous algorithm (through parameter 'BarHomogeneous')

Iteration    Objective       Primal Inf.    Dual Inf.      Time
       0   -2.4901256e+33   1.492890e+33   2.490126e+03      1s
    3496    7.0284605e+03   0.000000e+00   0.000000e+00      1s

Solved in 3496 iterations and 1.17 seconds
Optimal objective  7.028460511e+03
status: OPTIMAL
